WARNING: for repeatability, setting FPU to use double precision
============================[ Problem Statistics ]=============================
|                                                                             |
|  Number of variables:         26095                                         |
|  Number of clauses:            1223                                         |
|  Parse time:                   0.01 s                                       |
|                                                                             |
c ============================[ Search Statistics ]==============================
c | Conflicts |          ORIGINAL         |          LEARNT          | Progress |
c |           |    Vars  Clauses Literals |    Limit  Clauses Lit/Cl |          |
c ===============================================================================
c Switched to VSIDS.
c Switched to LRB.
c Switched to VSIDS.
c Switched to LRB.
c Switched to VSIDS.
c ===============================================================================
restarts                  : 2109
conflicts                 : 1869737        (7320 /sec)
decisions                 : 37142052       (0.00 % random) (145406 /sec)
propagations              : 254845866      (997684 /sec)
conflict literals         : 37110279       (28.31 % deleted)

conflicts w/ DIP found    : 1187672        (63.52 % of conflicts)
conflicts w/ dangerous DIP: 0              (0.00 % of conflicts)
conflicts w/ DIP-learning : 26927          (1.44 % of conflicts)
decisions on ext vars     : 780440         (2.10 % of decisions)
total ext vars            : 1861        
tried delete ext vars     : 51          
deleted ext vars          : 51          
max ext vars              : 1810        

Memory used               : 128.00 MB
CPU time                  : 255.438 s
DIP computation time      : 9.655 s (3.78 % of total time)
ER_sel time               : 1.70796 s
ER_add time               : 0.006507 s
ER_delC time              : 0 s
ER_delV time              : 0.000835 s
ER_sub time               : 2.25357 s
ER_stat time              : 0 s

UNSATISFIABLE
